\ Model birth-death-regulation-capture-efficiency
\ LP format - for model browsing. Use MPS format to capture full model detail.
Minimize
  k_reg
Subject To
 R0: k_deg_2 = 1
 B_lb_0,_0: p[0,0] >= 0.2114125
 B_ub_0,_0: p[0,0] <= 0.2566
 B_lb_0,_1: p[0,1] >= 0.1370125
 B_ub_0,_1: p[0,1] <= 0.1798
 B_lb_0,_2: p[0,2] >= 0.0478125
 B_ub_0,_2: p[0,2] <= 0.084
 B_lb_0,_3: p[0,3] >= -0.0033875
 B_ub_0,_3: p[0,3] <= 0.0266
 B_lb_0,_4: p[0,4] >= -0.0189875
 B_ub_0,_4: p[0,4] <= 0.0064
 B_lb_0,_5: p[0,5] >= -0.0217875
 B_ub_0,_5: p[0,5] <= 1
 B_lb_1,_0: p[1,0] >= 0.1638125
 B_ub_1,_0: p[1,0] <= 0.2078
 B_lb_1,_1: p[1,1] >= 0.0700125
 B_ub_1,_1: p[1,1] <= 0.1086
 B_lb_1,_2: p[1,2] >= 0.0050125
 B_ub_1,_2: p[1,2] <= 0.0366
 B_lb_1,_3: p[1,3] >= -0.0157875
 B_ub_1,_3: p[1,3] <= 0.011
 B_lb_1,_4: p[1,4] >= -0.0217875
 B_ub_1,_4: p[1,4] <= 1
 B_lb_1,_5: p[1,5] >= -0.0217875
 B_ub_1,_5: p[1,5] <= 1
 B_lb_2,_0: p[2,0] >= 0.0414125
 B_ub_2,_0: p[2,0] <= 0.0772
 B_lb_2,_1: p[2,1] >= 0.0030125
 B_ub_2,_1: p[2,1] <= 0.034005
 B_lb_2,_2: p[2,2] >= -0.0155875
 B_ub_2,_2: p[2,2] <= 0.0112
 B_lb_2,_3: p[2,3] >= -0.0217875
 B_ub_2,_3: p[2,3] <= 1
 B_lb_2,_4: p[2,4] >= -0.0217875
 B_ub_2,_4: p[2,4] <= 1
 B_lb_2,_5: p[2,5] >= -0.0217875
 B_ub_2,_5: p[2,5] <= 1
 B_lb_3,_0: p[3,0] >= -0.0071875
 B_ub_3,_0: p[3,0] <= 0.0224
 B_lb_3,_1: p[3,1] >= -0.0175875
 B_ub_3,_1: p[3,1] <= 0.0086
 B_lb_3,_2: p[3,2] >= -0.0217875
 B_ub_3,_2: p[3,2] <= 1
 B_lb_3,_3: p[3,3] >= -0.0217875
 B_ub_3,_3: p[3,3] <= 1
 B_lb_3,_4: p[3,4] >= -0.0217875
 B_ub_3,_4: p[3,4] <= 1
 B_lb_3,_5: p[3,5] >= -0.0217875
 B_ub_3,_5: p[3,5] <= 1
 B_lb_4,_0: p[4,0] >= -0.0187875
 B_ub_4,_0: p[4,0] <= 0.0068
 B_lb_4,_1: p[4,1] >= -0.0217875
 B_ub_4,_1: p[4,1] <= 1
 B_lb_4,_2: p[4,2] >= -0.0217875
 B_ub_4,_2: p[4,2] <= 1
 B_lb_4,_3: p[4,3] >= -0.0217875
 B_ub_4,_3: p[4,3] <= 1
 B_lb_4,_4: p[4,4] >= -0.0217875
 B_ub_4,_4: p[4,4] <= 1
 B_lb_4,_5: p[4,5] >= -0.0217875
 B_ub_4,_5: p[4,5] <= 1
 B_lb_5,_0: p[5,0] >= -0.0217875
 B_ub_5,_0: p[5,0] <= 1
 B_lb_5,_1: p[5,1] >= -0.0217875
 B_ub_5,_1: p[5,1] <= 1
 B_lb_5,_2: p[5,2] >= -0.0217875
 B_ub_5,_2: p[5,2] <= 1
 B_lb_5,_3: p[5,3] >= -0.0217875
 B_ub_5,_3: p[5,3] <= 1
 B_lb_5,_4: p[5,4] >= -0.0217875
 B_ub_5,_4: p[5,4] <= 1
 B_lb_5,_5: p[5,5] >= -0.0217875
 B_ub_5,_5: p[5,5] <= 1
 B_lb_6,_0: p[6,0] >= -0.0217875
 B_ub_6,_0: p[6,0] <= 1
 B_lb_6,_1: p[6,1] >= -0.0217875
 B_ub_6,_1: p[6,1] <= 1
 B_lb_6,_2: p[6,2] >= -0.0217875
 B_ub_6,_2: p[6,2] <= 1
 B_lb_6,_3: p[6,3] >= -0.0217875
 B_ub_6,_3: p[6,3] <= 1
 B_lb_6,_4: p[6,4] >= -0.0217875
 B_ub_6,_4: p[6,4] <= 1
 B_lb_6,_5: p[6,5] >= -0.0217875
 B_ub_6,_5: p[6,5] <= 1
 B_lb_7,_0: p[7,0] >= -0.0217875
 B_ub_7,_0: p[7,0] <= 1
 B_lb_7,_1: p[7,1] >= -0.0217875
 B_ub_7,_1: p[7,1] <= 1
 B_lb_7,_2: p[7,2] >= -0.0217875
 B_ub_7,_2: p[7,2] <= 1
 B_lb_7,_3: p[7,3] >= -0.0217875
 B_ub_7,_3: p[7,3] <= 1
 B_lb_7,_4: p[7,4] >= -0.0217875
 B_ub_7,_4: p[7,4] <= 1
 B_lb_7,_5: p[7,5] >= -0.0217875
 B_ub_7,_5: p[7,5] <= 1
 B_marginal_lb_0: p1[0] >= 0.418725
 B_marginal_ub_0: p1[0] <= 0.5328
 B_marginal_lb_1: p1[1] >= 0.238925
 B_marginal_ub_1: p1[1] <= 0.3516
 B_marginal_lb_2: p1[2] >= 0.014525
 B_marginal_ub_2: p1[2] <= 0.1182
 B_marginal_lb_3: p1[3] >= -0.064875
 B_marginal_ub_3: p1[3] <= 0.0304
 B_marginal_lb_4: p1[4] >= -0.082475
 B_marginal_ub_4: p1[4] <= 0.008
 B_marginal_lb_5: p1[5] >= -0.086275
 B_marginal_ub_5: p1[5] <= 1
 B_marginal_lb_6: p1[6] >= -0.086275
 B_marginal_ub_6: p1[6] <= 1
 B_marginal_lb_7: p1[7] >= -0.086275
 B_marginal_ub_7: p1[7] <= 1
 B_marginal_lb_0: p2[0] >= 0.407295
 B_marginal_ub_0: p2[0] <= 0.5506
 B_marginal_lb_1: p2[1] >= 0.1781
 B_marginal_ub_1: p2[1] <= 0.3188
 B_marginal_lb_2: p2[2] >= -0.0059
 B_marginal_ub_2: p2[2] <= 0.127
 B_marginal_lb_3: p2[3] >= -0.0881
 B_marginal_ub_3: p2[3] <= 0.037
 B_marginal_lb_4: p2[4] >= -0.1117
 B_marginal_ub_4: p2[4] <= 0.0078
 B_marginal_lb_5: p2[5] >= -0.1153
 B_marginal_ub_5: p2[5] <= 1
 frechet_lb_0,_0: - p[0,0] + p1[0] + p2[0] <= 1
 frechet_ub_x1_0: p[0,0] - p1[0] <= 0
 frechet_ub_x2_0: p[0,0] - p2[0] <= 0
 frechet_lb_0,_1: - p[0,1] + p1[0] + p2[1] <= 1
 frechet_ub_x1_0: p[0,1] - p1[0] <= 0
 frechet_ub_x2_1: p[0,1] - p2[1] <= 0
 frechet_lb_0,_2: - p[0,2] + p1[0] + p2[2] <= 1
 frechet_ub_x1_0: p[0,2] - p1[0] <= 0
 frechet_ub_x2_2: p[0,2] - p2[2] <= 0
 frechet_lb_0,_3: - p[0,3] + p1[0] + p2[3] <= 1
 frechet_ub_x1_0: p[0,3] - p1[0] <= 0
 frechet_ub_x2_3: p[0,3] - p2[3] <= 0
 frechet_lb_0,_4: - p[0,4] + p1[0] + p2[4] <= 1
 frechet_ub_x1_0: p[0,4] - p1[0] <= 0
 frechet_ub_x2_4: p[0,4] - p2[4] <= 0
 frechet_lb_0,_5: - p[0,5] + p1[0] + p2[5] <= 1
 frechet_ub_x1_0: p[0,5] - p1[0] <= 0
 frechet_ub_x2_5: p[0,5] - p2[5] <= 0
 frechet_lb_1,_0: - p[1,0] + p1[1] + p2[0] <= 1
 frechet_ub_x1_1: p[1,0] - p1[1] <= 0
 frechet_ub_x2_0: p[1,0] - p2[0] <= 0
 frechet_lb_1,_1: - p[1,1] + p1[1] + p2[1] <= 1
 frechet_ub_x1_1: p[1,1] - p1[1] <= 0
 frechet_ub_x2_1: p[1,1] - p2[1] <= 0
 frechet_lb_1,_2: - p[1,2] + p1[1] + p2[2] <= 1
 frechet_ub_x1_1: p[1,2] - p1[1] <= 0
 frechet_ub_x2_2: p[1,2] - p2[2] <= 0
 frechet_lb_1,_3: - p[1,3] + p1[1] + p2[3] <= 1
 frechet_ub_x1_1: p[1,3] - p1[1] <= 0
 frechet_ub_x2_3: p[1,3] - p2[3] <= 0
 frechet_lb_1,_4: - p[1,4] + p1[1] + p2[4] <= 1
 frechet_ub_x1_1: p[1,4] - p1[1] <= 0
 frechet_ub_x2_4: p[1,4] - p2[4] <= 0
 frechet_lb_1,_5: - p[1,5] + p1[1] + p2[5] <= 1
 frechet_ub_x1_1: p[1,5] - p1[1] <= 0
 frechet_ub_x2_5: p[1,5] - p2[5] <= 0
 frechet_lb_2,_0: - p[2,0] + p1[2] + p2[0] <= 1
 frechet_ub_x1_2: p[2,0] - p1[2] <= 0
 frechet_ub_x2_0: p[2,0] - p2[0] <= 0
 frechet_lb_2,_1: - p[2,1] + p1[2] + p2[1] <= 1
 frechet_ub_x1_2: p[2,1] - p1[2] <= 0
 frechet_ub_x2_1: p[2,1] - p2[1] <= 0
 frechet_lb_2,_2: - p[2,2] + p1[2] + p2[2] <= 1
 frechet_ub_x1_2: p[2,2] - p1[2] <= 0
 frechet_ub_x2_2: p[2,2] - p2[2] <= 0
 frechet_lb_2,_3: - p[2,3] + p1[2] + p2[3] <= 1
 frechet_ub_x1_2: p[2,3] - p1[2] <= 0
 frechet_ub_x2_3: p[2,3] - p2[3] <= 0
 frechet_lb_2,_4: - p[2,4] + p1[2] + p2[4] <= 1
 frechet_ub_x1_2: p[2,4] - p1[2] <= 0
 frechet_ub_x2_4: p[2,4] - p2[4] <= 0
 frechet_lb_2,_5: - p[2,5] + p1[2] + p2[5] <= 1
 frechet_ub_x1_2: p[2,5] - p1[2] <= 0
 frechet_ub_x2_5: p[2,5] - p2[5] <= 0
 frechet_lb_3,_0: - p[3,0] + p1[3] + p2[0] <= 1
 frechet_ub_x1_3: p[3,0] - p1[3] <= 0
 frechet_ub_x2_0: p[3,0] - p2[0] <= 0
 frechet_lb_3,_1: - p[3,1] + p1[3] + p2[1] <= 1
 frechet_ub_x1_3: p[3,1] - p1[3] <= 0
 frechet_ub_x2_1: p[3,1] - p2[1] <= 0
 frechet_lb_3,_2: - p[3,2] + p1[3] + p2[2] <= 1
 frechet_ub_x1_3: p[3,2] - p1[3] <= 0
 frechet_ub_x2_2: p[3,2] - p2[2] <= 0
 frechet_lb_3,_3: - p[3,3] + p1[3] + p2[3] <= 1
 frechet_ub_x1_3: p[3,3] - p1[3] <= 0
 frechet_ub_x2_3: p[3,3] - p2[3] <= 0
 frechet_lb_3,_4: - p[3,4] + p1[3] + p2[4] <= 1
 frechet_ub_x1_3: p[3,4] - p1[3] <= 0
 frechet_ub_x2_4: p[3,4] - p2[4] <= 0
 frechet_lb_3,_5: - p[3,5] + p1[3] + p2[5] <= 1
 frechet_ub_x1_3: p[3,5] - p1[3] <= 0
 frechet_ub_x2_5: p[3,5] - p2[5] <= 0
 frechet_lb_4,_0: - p[4,0] + p1[4] + p2[0] <= 1
 frechet_ub_x1_4: p[4,0] - p1[4] <= 0
 frechet_ub_x2_0: p[4,0] - p2[0] <= 0
 frechet_lb_4,_1: - p[4,1] + p1[4] + p2[1] <= 1
 frechet_ub_x1_4: p[4,1] - p1[4] <= 0
 frechet_ub_x2_1: p[4,1] - p2[1] <= 0
 frechet_lb_4,_2: - p[4,2] + p1[4] + p2[2] <= 1
 frechet_ub_x1_4: p[4,2] - p1[4] <= 0
 frechet_ub_x2_2: p[4,2] - p2[2] <= 0
 frechet_lb_4,_3: - p[4,3] + p1[4] + p2[3] <= 1
 frechet_ub_x1_4: p[4,3] - p1[4] <= 0
 frechet_ub_x2_3: p[4,3] - p2[3] <= 0
 frechet_lb_4,_4: - p[4,4] + p1[4] + p2[4] <= 1
 frechet_ub_x1_4: p[4,4] - p1[4] <= 0
 frechet_ub_x2_4: p[4,4] - p2[4] <= 0
 frechet_lb_4,_5: - p[4,5] + p1[4] + p2[5] <= 1
 frechet_ub_x1_4: p[4,5] - p1[4] <= 0
 frechet_ub_x2_5: p[4,5] - p2[5] <= 0
 frechet_lb_5,_0: - p[5,0] + p1[5] + p2[0] <= 1
 frechet_ub_x1_5: p[5,0] - p1[5] <= 0
 frechet_ub_x2_0: p[5,0] - p2[0] <= 0
 frechet_lb_5,_1: - p[5,1] + p1[5] + p2[1] <= 1
 frechet_ub_x1_5: p[5,1] - p1[5] <= 0
 frechet_ub_x2_1: p[5,1] - p2[1] <= 0
 frechet_lb_5,_2: - p[5,2] + p1[5] + p2[2] <= 1
 frechet_ub_x1_5: p[5,2] - p1[5] <= 0
 frechet_ub_x2_2: p[5,2] - p2[2] <= 0
 frechet_lb_5,_3: - p[5,3] + p1[5] + p2[3] <= 1
 frechet_ub_x1_5: p[5,3] - p1[5] <= 0
 frechet_ub_x2_3: p[5,3] - p2[3] <= 0
 frechet_lb_5,_4: - p[5,4] + p1[5] + p2[4] <= 1
 frechet_ub_x1_5: p[5,4] - p1[5] <= 0
 frechet_ub_x2_4: p[5,4] - p2[4] <= 0
 frechet_lb_5,_5: - p[5,5] + p1[5] + p2[5] <= 1
 frechet_ub_x1_5: p[5,5] - p1[5] <= 0
 frechet_ub_x2_5: p[5,5] - p2[5] <= 0
 frechet_lb_6,_0: - p[6,0] + p1[6] + p2[0] <= 1
 frechet_ub_x1_6: p[6,0] - p1[6] <= 0
 frechet_ub_x2_0: p[6,0] - p2[0] <= 0
 frechet_lb_6,_1: - p[6,1] + p1[6] + p2[1] <= 1
 frechet_ub_x1_6: p[6,1] - p1[6] <= 0
 frechet_ub_x2_1: p[6,1] - p2[1] <= 0
 frechet_lb_6,_2: - p[6,2] + p1[6] + p2[2] <= 1
 frechet_ub_x1_6: p[6,2] - p1[6] <= 0
 frechet_ub_x2_2: p[6,2] - p2[2] <= 0
 frechet_lb_6,_3: - p[6,3] + p1[6] + p2[3] <= 1
 frechet_ub_x1_6: p[6,3] - p1[6] <= 0
 frechet_ub_x2_3: p[6,3] - p2[3] <= 0
 frechet_lb_6,_4: - p[6,4] + p1[6] + p2[4] <= 1
 frechet_ub_x1_6: p[6,4] - p1[6] <= 0
 frechet_ub_x2_4: p[6,4] - p2[4] <= 0
 frechet_lb_6,_5: - p[6,5] + p1[6] + p2[5] <= 1
 frechet_ub_x1_6: p[6,5] - p1[6] <= 0
 frechet_ub_x2_5: p[6,5] - p2[5] <= 0
 frechet_lb_7,_0: - p[7,0] + p1[7] + p2[0] <= 1
 frechet_ub_x1_7: p[7,0] - p1[7] <= 0
 frechet_ub_x2_0: p[7,0] - p2[0] <= 0
 frechet_lb_7,_1: - p[7,1] + p1[7] + p2[1] <= 1
 frechet_ub_x1_7: p[7,1] - p1[7] <= 0
 frechet_ub_x2_1: p[7,1] - p2[1] <= 0
 frechet_lb_7,_2: - p[7,2] + p1[7] + p2[2] <= 1
 frechet_ub_x1_7: p[7,2] - p1[7] <= 0
 frechet_ub_x2_2: p[7,2] - p2[2] <= 0
 frechet_lb_7,_3: - p[7,3] + p1[7] + p2[3] <= 1
 frechet_ub_x1_7: p[7,3] - p1[7] <= 0
 frechet_ub_x2_3: p[7,3] - p2[3] <= 0
 frechet_lb_7,_4: - p[7,4] + p1[7] + p2[4] <= 1
 frechet_ub_x1_7: p[7,4] - p1[7] <= 0
 frechet_ub_x2_4: p[7,4] - p2[4] <= 0
 frechet_lb_7,_5: - p[7,5] + p1[7] + p2[5] <= 1
 frechet_ub_x1_7: p[7,5] - p1[7] <= 0
 frechet_ub_x2_5: p[7,5] - p2[5] <= 0
 Distribution: p[0,0] + p[0,1] + p[0,2] + p[0,3] + p[0,4] + p[0,5] + p[1,0]
   + p[1,1] + p[1,2] + p[1,3] + p[1,4] + p[1,5] + p[2,0] + p[2,1] + p[2,2]
   + p[2,3] + p[2,4] + p[2,5] + p[3,0] + p[3,1] + p[3,2] + p[3,3] + p[3,4]
   + p[3,5] + p[4,0] + p[4,1] + p[4,2] + p[4,3] + p[4,4] + p[4,5] + p[5,0]
   + p[5,1] + p[5,2] + p[5,3] + p[5,4] + p[5,5] + p[6,0] + p[6,1] + p[6,2]
   + p[6,3] + p[6,4] + p[6,5] + p[7,0] + p[7,1] + p[7,2] + p[7,3] + p[7,4]
   + p[7,5] <= 1
 Distribution_x1: p1[0] + p1[1] + p1[2] + p1[3] + p1[4] + p1[5] + p1[6]
   + p1[7] <= 1
 Distribution_x2: p2[0] + p2[1] + p2[2] + p2[3] + p2[4] + p2[5] <= 1
 Equation_0,_0: [ - p[0,0] * k_tx_1 - p[0,0] * k_tx_2 + p[0,1] * k_deg_2
   + p[1,0] * k_deg_1 + p[1,1] * k_reg ] = 0
 Equation_0,_1: [ p[0,0] * k_tx_2 - p[0,1] * k_tx_1 - p[0,1] * k_tx_2
   - p[0,1] * k_deg_2 + 2 p[0,2] * k_deg_2 + p[1,1] * k_deg_1
   + 2 p[1,2] * k_reg ] = 0
 Equation_0,_2: [ p[0,1] * k_tx_2 - p[0,2] * k_tx_1 - p[0,2] * k_tx_2
   - 2 p[0,2] * k_deg_2 + 3 p[0,3] * k_deg_2 + p[1,2] * k_deg_1
   + 3 p[1,3] * k_reg ] = 0
 Equation_0,_3: [ p[0,2] * k_tx_2 - p[0,3] * k_tx_1 - p[0,3] * k_tx_2
   - 3 p[0,3] * k_deg_2 + 4 p[0,4] * k_deg_2 + p[1,3] * k_deg_1
   + 4 p[1,4] * k_reg ] = 0
 Equation_0,_4: [ p[0,3] * k_tx_2 - p[0,4] * k_tx_1 - p[0,4] * k_tx_2
   - 4 p[0,4] * k_deg_2 + 5 p[0,5] * k_deg_2 + p[1,4] * k_deg_1
   + 5 p[1,5] * k_reg ] = 0
 Equation_1,_0: [ p[0,0] * k_tx_1 - p[1,0] * k_tx_1 - p[1,0] * k_tx_2
   - p[1,0] * k_deg_1 + p[1,1] * k_deg_2 + 2 p[2,0] * k_deg_1
   + 2 p[2,1] * k_reg ] = 0
 Equation_1,_1: [ p[0,1] * k_tx_1 + p[1,0] * k_tx_2 - p[1,1] * k_tx_1
   - p[1,1] * k_tx_2 - p[1,1] * k_deg_1 - p[1,1] * k_deg_2 - p[1,1] * k_reg
   + 2 p[1,2] * k_deg_2 + 2 p[2,1] * k_deg_1 + 4 p[2,2] * k_reg ] = 0
 Equation_1,_2: [ p[0,2] * k_tx_1 + p[1,1] * k_tx_2 - p[1,2] * k_tx_1
   - p[1,2] * k_tx_2 - p[1,2] * k_deg_1 - 2 p[1,2] * k_deg_2
   - 2 p[1,2] * k_reg + 3 p[1,3] * k_deg_2 + 2 p[2,2] * k_deg_1
   + 6 p[2,3] * k_reg ] = 0
 Equation_1,_3: [ p[0,3] * k_tx_1 + p[1,2] * k_tx_2 - p[1,3] * k_tx_1
   - p[1,3] * k_tx_2 - p[1,3] * k_deg_1 - 3 p[1,3] * k_deg_2
   - 3 p[1,3] * k_reg + 4 p[1,4] * k_deg_2 + 2 p[2,3] * k_deg_1
   + 8 p[2,4] * k_reg ] = 0
 Equation_1,_4: [ p[0,4] * k_tx_1 + p[1,3] * k_tx_2 - p[1,4] * k_tx_1
   - p[1,4] * k_tx_2 - p[1,4] * k_deg_1 - 4 p[1,4] * k_deg_2
   - 4 p[1,4] * k_reg + 5 p[1,5] * k_deg_2 + 2 p[2,4] * k_deg_1
   + 10 p[2,5] * k_reg ] = 0
 Equation_2,_0: [ p[1,0] * k_tx_1 - p[2,0] * k_tx_1 - p[2,0] * k_tx_2
   - 2 p[2,0] * k_deg_1 + p[2,1] * k_deg_2 + 3 p[3,0] * k_deg_1
   + 3 p[3,1] * k_reg ] = 0
 Equation_2,_1: [ p[1,1] * k_tx_1 + p[2,0] * k_tx_2 - p[2,1] * k_tx_1
   - p[2,1] * k_tx_2 - 2 p[2,1] * k_deg_1 - p[2,1] * k_deg_2
   - 2 p[2,1] * k_reg + 2 p[2,2] * k_deg_2 + 3 p[3,1] * k_deg_1
   + 6 p[3,2] * k_reg ] = 0
 Equation_2,_2: [ p[1,2] * k_tx_1 + p[2,1] * k_tx_2 - p[2,2] * k_tx_1
   - p[2,2] * k_tx_2 - 2 p[2,2] * k_deg_1 - 2 p[2,2] * k_deg_2
   - 4 p[2,2] * k_reg + 3 p[2,3] * k_deg_2 + 3 p[3,2] * k_deg_1
   + 9 p[3,3] * k_reg ] = 0
 Equation_2,_3: [ p[1,3] * k_tx_1 + p[2,2] * k_tx_2 - p[2,3] * k_tx_1
   - p[2,3] * k_tx_2 - 2 p[2,3] * k_deg_1 - 3 p[2,3] * k_deg_2
   - 6 p[2,3] * k_reg + 4 p[2,4] * k_deg_2 + 3 p[3,3] * k_deg_1
   + 12 p[3,4] * k_reg ] = 0
 Equation_2,_4: [ p[1,4] * k_tx_1 + p[2,3] * k_tx_2 - p[2,4] * k_tx_1
   - p[2,4] * k_tx_2 - 2 p[2,4] * k_deg_1 - 4 p[2,4] * k_deg_2
   - 8 p[2,4] * k_reg + 5 p[2,5] * k_deg_2 + 3 p[3,4] * k_deg_1
   + 15 p[3,5] * k_reg ] = 0
 Equation_3,_0: [ p[2,0] * k_tx_1 - p[3,0] * k_tx_1 - p[3,0] * k_tx_2
   - 3 p[3,0] * k_deg_1 + p[3,1] * k_deg_2 + 4 p[4,0] * k_deg_1
   + 4 p[4,1] * k_reg ] = 0
 Equation_3,_1: [ p[2,1] * k_tx_1 + p[3,0] * k_tx_2 - p[3,1] * k_tx_1
   - p[3,1] * k_tx_2 - 3 p[3,1] * k_deg_1 - p[3,1] * k_deg_2
   - 3 p[3,1] * k_reg + 2 p[3,2] * k_deg_2 + 4 p[4,1] * k_deg_1
   + 8 p[4,2] * k_reg ] = 0
 Equation_3,_2: [ p[2,2] * k_tx_1 + p[3,1] * k_tx_2 - p[3,2] * k_tx_1
   - p[3,2] * k_tx_2 - 3 p[3,2] * k_deg_1 - 2 p[3,2] * k_deg_2
   - 6 p[3,2] * k_reg + 3 p[3,3] * k_deg_2 + 4 p[4,2] * k_deg_1
   + 12 p[4,3] * k_reg ] = 0
 Equation_3,_3: [ p[2,3] * k_tx_1 + p[3,2] * k_tx_2 - p[3,3] * k_tx_1
   - p[3,3] * k_tx_2 - 3 p[3,3] * k_deg_1 - 3 p[3,3] * k_deg_2
   - 9 p[3,3] * k_reg + 4 p[3,4] * k_deg_2 + 4 p[4,3] * k_deg_1
   + 16 p[4,4] * k_reg ] = 0
 Equation_3,_4: [ p[2,4] * k_tx_1 + p[3,3] * k_tx_2 - p[3,4] * k_tx_1
   - p[3,4] * k_tx_2 - 3 p[3,4] * k_deg_1 - 4 p[3,4] * k_deg_2
   - 12 p[3,4] * k_reg + 5 p[3,5] * k_deg_2 + 4 p[4,4] * k_deg_1
   + 20 p[4,5] * k_reg ] = 0
 Equation_4,_0: [ p[3,0] * k_tx_1 - p[4,0] * k_tx_1 - p[4,0] * k_tx_2
   - 4 p[4,0] * k_deg_1 + p[4,1] * k_deg_2 + 5 p[5,0] * k_deg_1
   + 5 p[5,1] * k_reg ] = 0
 Equation_4,_1: [ p[3,1] * k_tx_1 + p[4,0] * k_tx_2 - p[4,1] * k_tx_1
   - p[4,1] * k_tx_2 - 4 p[4,1] * k_deg_1 - p[4,1] * k_deg_2
   - 4 p[4,1] * k_reg + 2 p[4,2] * k_deg_2 + 5 p[5,1] * k_deg_1
   + 10 p[5,2] * k_reg ] = 0
 Equation_4,_2: [ p[3,2] * k_tx_1 + p[4,1] * k_tx_2 - p[4,2] * k_tx_1
   - p[4,2] * k_tx_2 - 4 p[4,2] * k_deg_1 - 2 p[4,2] * k_deg_2
   - 8 p[4,2] * k_reg + 3 p[4,3] * k_deg_2 + 5 p[5,2] * k_deg_1
   + 15 p[5,3] * k_reg ] = 0
 Equation_4,_3: [ p[3,3] * k_tx_1 + p[4,2] * k_tx_2 - p[4,3] * k_tx_1
   - p[4,3] * k_tx_2 - 4 p[4,3] * k_deg_1 - 3 p[4,3] * k_deg_2
   - 12 p[4,3] * k_reg + 4 p[4,4] * k_deg_2 + 5 p[5,3] * k_deg_1
   + 20 p[5,4] * k_reg ] = 0
 Equation_4,_4: [ p[3,4] * k_tx_1 + p[4,3] * k_tx_2 - p[4,4] * k_tx_1
   - p[4,4] * k_tx_2 - 4 p[4,4] * k_deg_1 - 4 p[4,4] * k_deg_2
   - 16 p[4,4] * k_reg + 5 p[4,5] * k_deg_2 + 5 p[5,4] * k_deg_1
   + 25 p[5,5] * k_reg ] = 0
 Equation_5,_0: [ p[4,0] * k_tx_1 - p[5,0] * k_tx_1 - p[5,0] * k_tx_2
   - 5 p[5,0] * k_deg_1 + p[5,1] * k_deg_2 + 6 p[6,0] * k_deg_1
   + 6 p[6,1] * k_reg ] = 0
 Equation_5,_1: [ p[4,1] * k_tx_1 + p[5,0] * k_tx_2 - p[5,1] * k_tx_1
   - p[5,1] * k_tx_2 - 5 p[5,1] * k_deg_1 - p[5,1] * k_deg_2
   - 5 p[5,1] * k_reg + 2 p[5,2] * k_deg_2 + 6 p[6,1] * k_deg_1
   + 12 p[6,2] * k_reg ] = 0
 Equation_5,_2: [ p[4,2] * k_tx_1 + p[5,1] * k_tx_2 - p[5,2] * k_tx_1
   - p[5,2] * k_tx_2 - 5 p[5,2] * k_deg_1 - 2 p[5,2] * k_deg_2
   - 10 p[5,2] * k_reg + 3 p[5,3] * k_deg_2 + 6 p[6,2] * k_deg_1
   + 18 p[6,3] * k_reg ] = 0
 Equation_5,_3: [ p[4,3] * k_tx_1 + p[5,2] * k_tx_2 - p[5,3] * k_tx_1
   - p[5,3] * k_tx_2 - 5 p[5,3] * k_deg_1 - 3 p[5,3] * k_deg_2
   - 15 p[5,3] * k_reg + 4 p[5,4] * k_deg_2 + 6 p[6,3] * k_deg_1
   + 24 p[6,4] * k_reg ] = 0
 Equation_5,_4: [ p[4,4] * k_tx_1 + p[5,3] * k_tx_2 - p[5,4] * k_tx_1
   - p[5,4] * k_tx_2 - 5 p[5,4] * k_deg_1 - 4 p[5,4] * k_deg_2
   - 20 p[5,4] * k_reg + 5 p[5,5] * k_deg_2 + 6 p[6,4] * k_deg_1
   + 30 p[6,5] * k_reg ] = 0
 Equation_6,_0: [ p[5,0] * k_tx_1 - p[6,0] * k_tx_1 - p[6,0] * k_tx_2
   - 6 p[6,0] * k_deg_1 + p[6,1] * k_deg_2 + 7 p[7,0] * k_deg_1
   + 7 p[7,1] * k_reg ] = 0
 Equation_6,_1: [ p[5,1] * k_tx_1 + p[6,0] * k_tx_2 - p[6,1] * k_tx_1
   - p[6,1] * k_tx_2 - 6 p[6,1] * k_deg_1 - p[6,1] * k_deg_2
   - 6 p[6,1] * k_reg + 2 p[6,2] * k_deg_2 + 7 p[7,1] * k_deg_1
   + 14 p[7,2] * k_reg ] = 0
 Equation_6,_2: [ p[5,2] * k_tx_1 + p[6,1] * k_tx_2 - p[6,2] * k_tx_1
   - p[6,2] * k_tx_2 - 6 p[6,2] * k_deg_1 - 2 p[6,2] * k_deg_2
   - 12 p[6,2] * k_reg + 3 p[6,3] * k_deg_2 + 7 p[7,2] * k_deg_1
   + 21 p[7,3] * k_reg ] = 0
 Equation_6,_3: [ p[5,3] * k_tx_1 + p[6,2] * k_tx_2 - p[6,3] * k_tx_1
   - p[6,3] * k_tx_2 - 6 p[6,3] * k_deg_1 - 3 p[6,3] * k_deg_2
   - 18 p[6,3] * k_reg + 4 p[6,4] * k_deg_2 + 7 p[7,3] * k_deg_1
   + 28 p[7,4] * k_reg ] = 0
 Equation_6,_4: [ p[5,4] * k_tx_1 + p[6,3] * k_tx_2 - p[6,4] * k_tx_1
   - p[6,4] * k_tx_2 - 6 p[6,4] * k_deg_1 - 4 p[6,4] * k_deg_2
   - 24 p[6,4] * k_reg + 5 p[6,5] * k_deg_2 + 7 p[7,4] * k_deg_1
   + 35 p[7,5] * k_reg ] = 0
Bounds
 p[0,0] <= 1
 p[0,1] <= 1
 p[0,2] <= 1
 p[0,3] <= 1
 p[0,4] <= 1
 p[0,5] <= 1
 p[1,0] <= 1
 p[1,1] <= 1
 p[1,2] <= 1
 p[1,3] <= 1
 p[1,4] <= 1
 p[1,5] <= 1
 p[2,0] <= 1
 p[2,1] <= 1
 p[2,2] <= 1
 p[2,3] <= 1
 p[2,4] <= 1
 p[2,5] <= 1
 p[3,0] <= 1
 p[3,1] <= 1
 p[3,2] <= 1
 p[3,3] <= 1
 p[3,4] <= 1
 p[3,5] <= 1
 p[4,0] <= 1
 p[4,1] <= 1
 p[4,2] <= 1
 p[4,3] <= 1
 p[4,4] <= 1
 p[4,5] <= 1
 p[5,0] <= 1
 p[5,1] <= 1
 p[5,2] <= 1
 p[5,3] <= 1
 p[5,4] <= 1
 p[5,5] <= 1
 p[6,0] <= 1
 p[6,1] <= 1
 p[6,2] <= 1
 p[6,3] <= 1
 p[6,4] <= 1
 p[6,5] <= 1
 p[7,0] <= 1
 p[7,1] <= 1
 p[7,2] <= 1
 p[7,3] <= 1
 p[7,4] <= 1
 p[7,5] <= 1
 p1[0] <= 1
 p1[1] <= 1
 p1[2] <= 1
 p1[3] <= 1
 p1[4] <= 1
 p1[5] <= 1
 p1[6] <= 1
 p1[7] <= 1
 p2[0] <= 1
 p2[1] <= 1
 p2[2] <= 1
 p2[3] <= 1
 p2[4] <= 1
 p2[5] <= 1
 k_tx_1 <= 10
 k_tx_2 <= 10
 k_deg_1 <= 10
 k_deg_2 <= 10
 k_reg <= 10
End
